NAME 
ROWS
 N  OBJ
 L  R0      
 E  R1      
 E  R2      
 E  R3      
 E  R4      
 E  R5      
 E  R6      
 E  R7      
 E  R8      
 E  R9      
 E  R10     
 E  R11     
 E  R12     
 E  R13     
 E  R14     
 E  R15     
 E  R16     
 E  R17     
 E  R18     
 E  R19     
 E  R20     
 E  R21     
 E  R22     
 E  R23     
 E  R24     
 E  R25     
 E  R26     
 E  R27     
 E  R28     
 E  R29     
 E  R30     
COLUMNS
    MARKER    'MARKER'                 'INTORG'
    I0(3)     OBJ       62
    I0(3)     R0        -78
    I0(3)     R1        10
    I0(3)     R30       1
    I1(3)     OBJ       45
    I1(3)     R0        -135
    I1(3)     R2        -1
    I1(3)     R30       1
    I2(3)     OBJ       45
    I2(3)     R0        -3
    I2(3)     R3        5
    I2(3)     R30       1
    I3(3)     OBJ       -59
    I3(3)     R0        -14
    I3(3)     R4        5
    I3(3)     R30       1
    I4(3)     OBJ       199
    I4(3)     R0        45
    I4(3)     R5        12
    I4(3)     R30       1
    I5(3)     OBJ       -125
    I5(3)     R0        58
    I5(3)     R6        4
    I5(3)     R30       1
    I6(3)     OBJ       89
    I6(3)     R0        87
    I6(3)     R7        16
    I6(3)     R30       1
    I7(2)     OBJ       60
    I7(2)     R0        68
    I7(2)     R30       1
    I8(3)     OBJ       119
    I8(3)     R0        -27
    I8(3)     R9        -1
    I8(3)     R30       1
    I9(3)     OBJ       98
    I9(3)     R0        -43
    I9(3)     R10       2
    I9(3)     R30       1
    I10(3)    OBJ       -149
    I10(3)    R0        97
    I10(3)    R11       15
    I10(3)    R30       1
    I11(3)    OBJ       72
    I11(3)    R0        -185
    I11(3)    R12       5
    I11(3)    R30       1
    I12(3)    OBJ       37
    I12(3)    R0        62
    I12(3)    R13       2
    I12(3)    R30       1
    I13(3)    OBJ       -67
    I13(3)    R0        -196
    I13(3)    R14       -1
    I13(3)    R30       1
    I14(3)    OBJ       118
    I14(3)    R0        -64
    I14(3)    R15       7
    I14(3)    R30       1
    I15(3)    OBJ       28
    I15(3)    R0        167
    I15(3)    R16       13
    I15(3)    R30       1
    I16(3)    OBJ       38
    I16(3)    R0        144
    I16(3)    R17       -1
    I16(3)    R30       1
    I17(3)    OBJ       -136
    I17(3)    R0        72
    I17(3)    R18       5
    I17(3)    R30       1
    I18(3)    OBJ       -20
    I18(3)    R0        192
    I18(3)    R19       8
    I18(3)    R30       1
    I19(3)    OBJ       174
    I19(3)    R0        147
    I19(3)    R20       12
    I19(3)    R30       1
    I20(3)    OBJ       109
    I20(3)    R0        52
    I20(3)    R21       10
    I20(3)    R30       1
    I21(3)    OBJ       -98
    I21(3)    R0        -78
    I21(3)    R22       9
    I21(3)    R30       1
    I22(3)    OBJ       104
    I22(3)    R0        195
    I22(3)    R23       5
    I22(3)    R30       1
    I23(3)    OBJ       -193
    I23(3)    R0        68
    I23(3)    R24       15
    I23(3)    R30       1
    I24(3)    OBJ       197
    I24(3)    R0        172
    I24(3)    R25       17
    I24(3)    R30       1
    I25(3)    OBJ       116
    I25(3)    R0        -191
    I25(3)    R26       13
    I25(3)    R30       1
    I26(3)    OBJ       67
    I26(3)    R0        10
    I26(3)    R27       17
    I26(3)    R30       1
    I27(3)    OBJ       197
    I27(3)    R0        -28
    I27(3)    R28       13
    I27(3)    R30       1
    MARKER    'MARKER'                 'INTEND'
    C28(30)   OBJ       9
    C28(30)   R0        7
    C28(30)   R1        14
    C28(30)   R2        16
    C28(30)   R3        16
    C28(30)   R4        4
    C28(30)   R5        6
    C28(30)   R6        -1
    C28(30)   R7        15
    C28(30)   R8        16
    C28(30)   R9        6
    C28(30)   R10       -1
    C28(30)   R11       2
    C28(30)   R12       11
    C28(30)   R13       12
    C28(30)   R14       7
    C28(30)   R15       19
    C28(30)   R16       11
    C28(30)   R17       16
    C28(30)   R18       6
    C28(30)   R19       3
    C28(30)   R20       14
    C28(30)   R21       6
    C28(30)   R22       8
    C28(30)   R23       16
    C28(30)   R24       18
    C28(30)   R25       17
    C28(30)   R26       10
    C28(30)   R27       1
    C28(30)   R28       4
    C28(30)   R29       2
    C29(30)   OBJ       -4
    C29(30)   R0        -3
    C29(30)   R1        8
    C29(30)   R2        3
    C29(30)   R3        13
    C29(30)   R4        12
    C29(30)   R5        5
    C29(30)   R6        13
    C29(30)   R7        9
    C29(30)   R8        8
    C29(30)   R9        11
    C29(30)   R10       9
    C29(30)   R11       12
    C29(30)   R12       1
    C29(30)   R13       17
    C29(30)   R14       13
    C29(30)   R15       7
    C29(30)   R16       1
    C29(30)   R17       14
    C29(30)   R18       -1
    C29(30)   R19       14
    C29(30)   R20       9
    C29(30)   R21       8
    C29(30)   R22       18
    C29(30)   R23       14
    C29(30)   R24       19
    C29(30)   R25       4
    C29(30)   R26       9
    C29(30)   R27       10
    C29(30)   R28       19
    C29(30)   R29       17
    C30(1)    R1        1
    C31(1)    R2        1
    C32(1)    R3        1
    C33(1)    R4        1
    C34(1)    R5        1
    C35(1)    R6        1
    C36(1)    R7        1
    C37(1)    R8        1
    C38(1)    R9        1
    C39(1)    R10       1
    C40(1)    R11       1
    C41(1)    R12       1
    C42(1)    R13       1
    C43(1)    R14       1
    C44(1)    R15       1
    C45(1)    R16       1
    C46(1)    R17       1
    C47(1)    R18       1
    C48(1)    R19       1
    C49(1)    R20       1
    C50(1)    R21       1
    C51(1)    R22       1
    C52(1)    R23       1
    C53(1)    R24       1
    C54(1)    R25       1
    C55(1)    R26       1
    C56(1)    R27       1
    C57(1)    R28       1
    C58(1)    R29       1
    C59(1)    R30       1
RHS
    RHS1      R0        1.9142105263157896e+02
    RHS1      R1        60
    RHS1      R2        86
    RHS1      R3        82
    RHS1      R4        67
    RHS1      R5        96
    RHS1      R6        88
    RHS1      R7        67
    RHS1      R8        75
    RHS1      R9        95
    RHS1      R10       52
    RHS1      R11       90
    RHS1      R12       99
    RHS1      R13       71
    RHS1      R14       70
    RHS1      R15       94
    RHS1      R16       96
    RHS1      R17       94
    RHS1      R18       50
    RHS1      R19       71
    RHS1      R20       99
    RHS1      R21       57
    RHS1      R22       80
    RHS1      R23       83
    RHS1      R24       63
    RHS1      R25       58
    RHS1      R26       86
    RHS1      R27       77
    RHS1      R28       52
    RHS1      R29       88
    RHS1      R30       9
BOUNDS
 UP BND1      I0(3)     1
 UP BND1      I1(3)     1
 UP BND1      I2(3)     1
 UP BND1      I3(3)     1
 UP BND1      I4(3)     1
 UP BND1      I5(3)     1
 UP BND1      I6(3)     1
 UP BND1      I7(2)     1
 UP BND1      I8(3)     1
 UP BND1      I9(3)     1
 UP BND1      I10(3)    1
 UP BND1      I11(3)    1
 UP BND1      I12(3)    1
 UP BND1      I13(3)    1
 UP BND1      I14(3)    1
 UP BND1      I15(3)    1
 UP BND1      I16(3)    1
 UP BND1      I17(3)    1
 UP BND1      I18(3)    1
 UP BND1      I19(3)    1
 UP BND1      I20(3)    1
 UP BND1      I21(3)    1
 UP BND1      I22(3)    1
 UP BND1      I23(3)    1
 UP BND1      I24(3)    1
 UP BND1      I25(3)    1
 UP BND1      I26(3)    1
 UP BND1      I27(3)    1
ENDATA
